%RWF=myrwf
%NoSave
%chk=opt.chk
%NprocShared=4
%Mem=16GB
#HF/6-31G* SCF=tight Test Pop=MK iop(6/33=2) iop(6/42=6) opt

remark line goes here

0   1
    H   18.4640000000      -12.8470000000       20.7220000000     
    C   18.0090000000      -11.9010000000       21.0170000000     
    H   18.6400000000      -11.0760000000       20.6880000000     
    H   17.9060000000      -11.8690000000       22.1020000000     
    C   16.6060000000      -11.7350000000       20.3820000000     
    O   16.1570000000      -12.6190000000       19.6530000000     
    H   10.7950000000      -10.4370000000       24.1730000000     
    H   11.1070000000      -12.4170000000       22.7110000000     
    C   11.5490000000      -10.4210000000       23.3990000000     
    C   11.7280000000      -11.5440000000       22.5690000000     
   Cl   12.1950000000       -7.9330000000       24.2820000000     
    C   12.3660000000       -9.2890000000       23.2270000000     
    C   12.7060000000      -11.5350000000       21.5530000000     
   Cl   12.8570000000      -12.9330000000       20.5530000000     
    C   13.3430000000       -9.2750000000       22.2110000000     
    C   13.5220000000      -10.3910000000       21.3620000000     
    H   13.9670000000       -8.4030000000       22.0920000000     
    H   14.2590000000      -10.9050000000       19.3860000000     
    C   14.5610000000      -10.3070000000       20.2470000000     
    H   14.5620000000       -9.2770000000       19.8990000000     
    N   15.9280000000      -10.6140000000       20.6660000000     
    H   16.4240000000       -9.9020000000       21.2010000000     


