%RWF=myrwf
%NoSave
%chk=opt.chk
%NprocShared=4
%Mem=16GB
#HF/6-31G* SCF=tight Test Pop=MK iop(6/33=2) iop(6/42=6) opt

remark line goes here

0   1
    H   18.6940000000      -12.8990000000       20.6790000000     
    C   18.2280000000      -11.9590000000       20.9750000000     
    H   18.8690000000      -11.1270000000       20.6840000000     
    H   18.0870000000      -11.9480000000       22.0560000000     
    C   16.8530000000      -11.7830000000       20.2960000000     
    O   16.4280000000      -12.6530000000       19.5330000000     
    H   10.8210000000      -11.9580000000       23.4230000000     
    H   11.1430000000       -9.5390000000       22.9500000000     
    C   11.6260000000      -11.6330000000       22.7780000000     
    C   11.8080000000      -10.2640000000       22.5060000000     
    H   12.3610000000      -13.6330000000       22.4240000000     
    C   12.4940000000      -12.5820000000       22.2070000000     
    C   12.8500000000       -9.8470000000       21.6540000000     
    H   12.9730000000       -8.7970000000       21.4420000000     
    C   13.5400000000      -12.1660000000       21.3620000000     
    C   13.7220000000      -10.7960000000       21.0760000000     
    H   14.2010000000      -12.9040000000       20.9320000000     
    H   14.6390000000      -10.7690000000       19.1450000000     
    H   14.7760000000       -9.2610000000       20.0240000000     
    C   14.8260000000      -10.3440000000       20.1330000000     
    N   16.1690000000      -10.6730000000       20.5900000000     
    H   16.6310000000       -9.9770000000       21.1730000000     


