%RWF=myrwf
%NoSave
%chk=opt.chk
%NprocShared=4
%Mem=16GB
#HF/6-31G* SCF=tight Test Pop=MK iop(6/33=2) iop(6/42=6) opt

remark line goes here

0   1
    H   18.4830000000      -12.9170000000       20.7690000000     
    C   18.0670000000      -11.9440000000       21.0290000000     
    H   18.7230000000      -11.1570000000       20.6570000000     
    H   17.9810000000      -11.8620000000       22.1130000000     
    C   16.6630000000      -11.7540000000       20.4060000000     
    O   16.1640000000      -12.6470000000       19.7190000000     
    H   10.8470000000      -10.6550000000       24.0060000000     
    H   11.3300000000      -12.5740000000       22.5020000000     
    C   11.6200000000      -10.5700000000       23.2550000000     
    C   11.8940000000      -11.6570000000       22.4010000000     
   Cl   12.1060000000       -8.0760000000       24.2430000000     
    C   12.3720000000       -9.3840000000       23.1460000000     
    C   12.9050000000      -11.5530000000       21.4230000000     
    H   13.1150000000      -12.3910000000       20.7740000000     
    C   13.3740000000       -9.2780000000       22.1610000000     
    C   13.6410000000      -10.3570000000       21.2920000000     
    H   13.9510000000       -8.3700000000       22.0900000000     
    H   14.4050000000      -10.7640000000       19.3190000000     
    C   14.7040000000      -10.2160000000       20.2150000000     
    H   14.7420000000       -9.1640000000       19.9390000000     
    N   16.0420000000      -10.5940000000       20.6500000000     
    H   16.5620000000       -9.8920000000       21.1770000000     


