%RWF=myrwf
%NoSave
%chk=esp.chk
%NprocShared=4
%Mem=16GB
#HF/6-31G* SCF=tight Test Pop=MK iop(6/33=2) iop(6/42=6) opt
# iop(6/50=1)

remark line goes here

0   1
    H    5.2228090000       -0.8598690000       -1.0881630000     
    C    4.2086170000       -0.5858410000       -1.3410530000     
    H    3.8067080000       -1.2958620000       -2.0549880000     
    H    4.2256800000        0.3946220000       -1.8062340000     
    C    3.3925710000       -0.5059920000       -0.0684530000     
    O    3.8831570000       -0.2007420000        0.9827350000     
    H   -3.4827940000        1.6227260000       -0.6811840000     
    H   -1.3963700000        2.9661770000       -0.5037710000     
    C   -2.5633290000        1.1658420000       -0.3692950000     
    C   -1.4026830000        1.9176560000       -0.2734010000     
   Cl   -3.9745320000       -1.1358790000       -0.1718760000     
    C   -2.5229520000       -0.1775840000       -0.0561570000     
    C   -0.2391580000        1.3060040000        0.1300090000     
    F    0.8647730000        2.0381050000        0.2229640000     
    C   -1.3424210000       -0.7782280000        0.3495680000     
    C   -0.1725190000       -0.0412550000        0.4495890000     
    H   -1.3360640000       -1.8245760000        0.5918180000     
    H    1.6034450000       -0.0871330000        1.6555900000     
    C    1.1303960000       -0.6745620000        0.8843720000     
    H    0.9261880000       -1.6559950000        1.2999090000     
    N    2.0699720000       -0.7692020000       -0.2129350000     
    H    1.7282840000       -1.0589800000       -1.1001640000     

final.esp

final.esp


