%RWF=myrwf
%NoSave
%chk=esp.chk
%NprocShared=4
%Mem=16GB
#HF/6-31G* SCF=tight Test Pop=MK iop(6/33=2) iop(6/42=6) opt
# iop(6/50=1)

remark line goes here

0   1
    H   -4.8534810000       -0.1456820000        1.2745470000     
    C   -3.9431680000       -0.7284870000        1.2985310000     
    H   -4.2170290000       -1.7787130000        1.2878370000     
    H   -3.4029220000       -0.5216920000        2.2150420000     
    C   -3.1361660000       -0.4220720000        0.0539150000     
    O   -3.6625390000       -0.2034510000       -1.0034030000     
    H    4.6969070000       -1.5768650000        0.5189330000     
    H    4.0922370000        0.7274600000        0.8095000000     
    C    3.7530440000       -1.8945220000        0.0914140000     
    C    3.0962180000        0.5204620000        0.4581980000     
    H    2.4601710000        2.5359310000        0.7212830000     
    H    3.9517950000       -2.2705840000       -0.9079460000     
    H    3.3833460000       -2.7261410000        0.6837780000     
    C    2.7570990000       -0.7585650000        0.0587820000     
    C    2.1648790000        1.5495300000        0.4082940000     
    H    0.3317630000        3.3888310000        0.3206950000     
    C    1.4545500000       -0.9705700000       -0.3877690000     
    C    0.8708240000        1.3397510000       -0.0363300000     
    H    1.1684560000       -1.9591170000       -0.7080840000     
    C   -0.1097040000        2.4900420000       -0.0930790000     
    C    0.5143150000        0.0444520000       -0.4407050000     
    H   -0.4037640000        2.7097640000       -1.1153470000     
    H   -1.0151080000        2.2743680000        0.4627020000     
    H   -1.2784720000        0.5006980000       -1.5540160000     
    H   -0.8726030000       -1.1883630000       -1.5066230000     
    C   -0.8863840000       -0.2778240000       -0.9168070000     
    N   -1.7925230000       -0.4244590000        0.2115740000     
    H   -1.4063650000       -0.7242610000        1.0772420000     

final.esp

final.esp


