%RWF=myrwf
%NoSave
%chk=opt.chk
%NprocShared=4
%Mem=16GB
#HF/6-31G* SCF=tight Test Pop=MK iop(6/33=2) iop(6/42=6) opt

remark line goes here

0   1
    H   18.6550000000      -12.9000000000       20.6960000000     
    C   18.1950000000      -11.9530000000       20.9800000000     
    H   18.8400000000      -11.1290000000       20.6740000000     
    H   18.0580000000      -11.9250000000       22.0610000000     
    C   16.8180000000      -11.7790000000       20.3040000000     
    O   16.3850000000      -12.6580000000       19.5560000000     
    H   10.3770000000       -9.6710000000       23.8410000000     
    H   10.8640000000      -12.2040000000       23.3200000000     
    C   11.4640000000       -9.6050000000       23.8700000000     
    C   11.6480000000      -11.8210000000       22.6820000000     
    H   11.7630000000       -8.5640000000       23.7530000000     
    H   11.7850000000       -9.9410000000       24.8550000000     
    H   11.9200000000      -13.6990000000       21.6580000000     
    C   12.0810000000      -10.4870000000       22.8070000000     
    C   12.2470000000      -12.6710000000       21.7350000000     
    C   13.1050000000       -9.9980000000       21.9690000000     
    C   13.2760000000      -12.1870000000       20.9050000000     
    H   13.4440000000       -8.9780000000       22.0680000000     
    C   13.7050000000      -10.8480000000       21.0150000000     
    H   13.7420000000      -12.8460000000       20.1860000000     
    H   14.6470000000      -10.7190000000       19.1010000000     
    H   14.7240000000       -9.2450000000       20.0430000000     
    C   14.8060000000      -10.3300000000       20.1080000000     
    N   16.1460000000      -10.6550000000       20.5740000000     
    H   16.6120000000       -9.9540000000       21.1480000000     


