%RWF=myrwf
%NoSave
%chk=esp.chk
%NprocShared=4
%Mem=16GB
#HF/6-31G* SCF=tight Test Pop=MK iop(6/33=2) iop(6/42=6) opt
# iop(6/50=1)

remark line goes here

0   1
    H    5.7247340000       -0.4614480000       -1.1635270000     
    C    4.6940280000       -0.7406160000       -1.3289990000     
    H    4.6277160000       -1.8086180000       -1.5008090000     
    H    4.3411680000       -0.2267350000       -2.2179020000     
    C    3.8700980000       -0.2873050000       -0.1429410000     
    O    4.1719150000        0.6776470000        0.5066080000     
    H   -2.3604760000        2.1657930000       -0.7286330000     
    H   -0.1428420000        3.2208570000       -0.4916450000     
    C   -1.5264790000        1.6038380000       -0.3543510000     
    C   -0.2750910000        2.1893150000       -0.2191090000     
   Br   -3.3839790000       -0.5432700000       -0.1667550000     
    C   -1.6804360000        0.2820310000        0.0065090000     
    C    0.7948710000        1.4615080000        0.2659110000     
    H    1.7604570000        1.9215890000        0.3704020000     
    C   -0.6175660000       -0.4601930000        0.4944280000     
    C    0.6317930000        0.1257650000        0.6255830000     
    H   -0.7711630000       -1.4864950000        0.7722360000     
    H    2.3404630000       -0.1216000000        1.8982700000     
    C    1.8074300000       -0.6805080000        1.1445850000     
    H    1.4508690000       -1.5953880000        1.6024530000     
    N    2.7698750000       -1.0340390000        0.1181160000     
    H    2.5120130000       -1.7394330000       -0.5338070000     

final.esp

final.esp


