%RWF=myrwf
%NoSave
%chk=opt.chk
%NprocShared=4
%Mem=16GB
#HF/6-31G* SCF=tight Test Pop=MK iop(6/33=2) iop(6/42=6) opt

remark line goes here

0   1
    H   18.4720000000      -12.9130000000       20.7680000000     
    C   18.0560000000      -11.9400000000       21.0290000000     
    H   18.7120000000      -11.1530000000       20.6570000000     
    H   17.9710000000      -11.8600000000       22.1130000000     
    C   16.6510000000      -11.7490000000       20.4070000000     
    O   16.1520000000      -12.6410000000       19.7200000000     
    H   10.8450000000      -10.6300000000       24.0280000000     
    H   11.3110000000      -12.5520000000       22.5210000000     
    C   11.6150000000      -10.5490000000       23.2730000000     
    C   11.8800000000      -11.6380000000       22.4170000000     
   Br   12.0950000000       -7.9250000000       24.3750000000     
    C   12.3730000000       -9.3680000000       23.1620000000     
    C   12.8880000000      -11.5390000000       21.4360000000     
    H   13.0910000000      -12.3790000000       20.7860000000     
    C   13.3710000000       -9.2680000000       22.1730000000     
    C   13.6310000000      -10.3470000000       21.3020000000     
    H   13.9530000000       -8.3620000000       22.1010000000     
    H   14.3890000000      -10.7640000000       19.3290000000     
    C   14.6910000000      -10.2120000000       20.2220000000     
    H   14.7290000000       -9.1610000000       19.9410000000     
    N   16.0300000000      -10.5890000000       20.6540000000     
    H   16.5520000000       -9.8880000000       21.1800000000     


